data/lp_files/pEFS/37_8.lp
\ Model foo
\ LP format - for model browsing. Use MPS format to capture full model detail.
Minimize
  z
Subject To
 allocateEach[1]: x[1,1] + x[2,1] = 1
 allocateEach[2]: x[1,2] + x[2,2] = 1
 allocateEach[3]: x[1,3] + x[2,3] = 1
 allocateEach[4]: x[1,4] + x[2,4] = 1
 allocateEach[5]: x[1,5] + x[2,5] = 1
 allocateEach[6]: x[1,6] + x[2,6] = 1
 allocateEach[7]: x[1,7] + x[2,7] = 1
 allocateEach[8]: x[1,8] + x[2,8] = 1
 allocateEach[9]: x[1,9] + x[2,9] = 1
 allocateEach[10]: x[1,10] + x[2,10] = 1
 allocateEach[11]: x[1,11] + x[2,11] = 1
 allocateEach[12]: x[1,12] + x[2,12] = 1
 allocateEach[13]: x[1,13] + x[2,13] = 1
 allocateEach[14]: x[1,14] + x[2,14] = 1
 allocateEach[15]: x[1,15] + x[2,15] = 1
 allocateEach[16]: x[1,16] + x[2,16] = 1
 allocateEach[17]: x[1,17] + x[2,17] = 1
 allocateAllCash: cashProportion[1] + cashProportion[2] = 1
 findWorstP[1,2]: z + 0.0796384414757003 cashProportion[1]
   - 0.0796384414757003 cashProportion[2] + 0.0246680072470982 x[1,1]
   + 0.0192127740060127 x[1,2] + 0.071624823302208 x[1,3]
   + 0.0102534493399964 x[1,4] + 0.036932327234356 x[1,5]
   + 0.0993091365201983 x[1,6] + 0.0802755490075059 x[1,7]
   + 0.000816294 x[1,8] + 0.00510681505962928 x[1,9]
   + 0.0226073625739144 x[1,10] + 0.0813208035518745 x[1,11]
   + 0.0706293427837617 x[1,12] + 0.0931769765265694 x[1,13]
   + 0.0940032253568798 x[1,14] + 0.0921217671770163 x[1,15]
   + 0.0780954466721086 x[1,16] + 0.0402074581400442 x[1,17]
   - 0.0246680072470982 x[2,1] - 0.0192127740060127 x[2,2]
   - 0.071624823302208 x[2,3] - 0.0102534493399964 x[2,4]
   - 0.036932327234356 x[2,5] - 0.0993091365201983 x[2,6]
   - 0.0802755490075059 x[2,7] - 0.000816294 x[2,8]
   - 0.00510681505962928 x[2,9] - 0.0226073625739144 x[2,10]
   - 0.0813208035518745 x[2,11] - 0.0706293427837617 x[2,12]
   - 0.0931769765265694 x[2,13] - 0.0940032253568798 x[2,14]
   - 0.0921217671770163 x[2,15] - 0.0780954466721086 x[2,16]
   - 0.0402074581400442 x[2,17] >= 0
 findWorstP[2,1]: z - 0.089433439162903 cashProportion[1]
   + 0.089433439162903 cashProportion[2] - 0.0482493404283862 x[1,1]
   - 0.0892322139247865 x[1,2] - 0.0583217815141081 x[1,3]
   - 0.0460582211688951 x[1,4] - 0.0962750972588651 x[1,5]
   - 0.038478737199839 x[1,6] - 0.0426262129410186 x[1,7]
   - 0.0678129052452712 x[1,8] - 0.0715020346107409 x[1,9]
   - 0.0492442874390735 x[1,10] - 0.1044694361221661 x[1,11]
   - 0.0220229843938649 x[1,12] - 0.0473997227563386 x[1,13]
   - 0.0614854894244958 x[1,14] - 0.0230850064839243 x[1,15]
   - 0.0265505522514868 x[1,16] - 0.0177525376738362 x[1,17]
   + 0.0482493404283862 x[2,1] + 0.0892322139247865 x[2,2]
   + 0.0583217815141081 x[2,3] + 0.0460582211688951 x[2,4]
   + 0.0962750972588651 x[2,5] + 0.038478737199839 x[2,6]
   + 0.0426262129410186 x[2,7] + 0.0678129052452712 x[2,8]
   + 0.0715020346107409 x[2,9] + 0.0492442874390735 x[2,10]
   + 0.1044694361221661 x[2,11] + 0.0220229843938649 x[2,12]
   + 0.0473997227563386 x[2,13] + 0.0614854894244958 x[2,14]
   + 0.0230850064839243 x[2,15] + 0.0265505522514868 x[2,16]
   + 0.0177525376738362 x[2,17] >= 0
Bounds
 z <= 1
 -infinity <= cashProportion[1] <= 1
 -infinity <= cashProportion[2] <= 1
Binaries
 x[1,1] x[1,2] x[1,3] x[1,4] x[1,5] x[1,6] x[1,7] x[1,8] x[1,9] x[1,10]
 x[1,11] x[1,12] x[1,13] x[1,14] x[1,15] x[1,16] x[1,17] x[2,1] x[2,2]
 x[2,3] x[2,4] x[2,5] x[2,6] x[2,7] x[2,8] x[2,9] x[2,10] x[2,11] x[2,12]
 x[2,13] x[2,14] x[2,15] x[2,16] x[2,17]
End
