data/mps_files/pEFS/37_8.mps
NAME foo
ROWS
 N  OBJ
 E  allocateEach[1]
 E  allocateEach[2]
 E  allocateEach[3]
 E  allocateEach[4]
 E  allocateEach[5]
 E  allocateEach[6]
 E  allocateEach[7]
 E  allocateEach[8]
 E  allocateEach[9]
 E  allocateEach[10]
 E  allocateEach[11]
 E  allocateEach[12]
 E  allocateEach[13]
 E  allocateEach[14]
 E  allocateEach[15]
 E  allocateEach[16]
 E  allocateEach[17]
 E  allocateAllCash
 G  findWorstP[1,2]
 G  findWorstP[2,1]
COLUMNS
    z         OBJ       1
    z         findWorstP[1,2]  1
    z         findWorstP[2,1]  1
    cashProportion[1]  allocateAllCash  1
    cashProportion[1]  findWorstP[1,2]  7.9638441475700331e-02
    cashProportion[1]  findWorstP[2,1]  -8.9433439162903028e-02
    cashProportion[2]  allocateAllCash  1
    cashProportion[2]  findWorstP[1,2]  -7.9638441475700331e-02
    cashProportion[2]  findWorstP[2,1]  8.9433439162903028e-02
    MARKER    'MARKER'                 'INTORG'
    x[1,1]    allocateEach[1]  1
    x[1,1]    findWorstP[1,2]  2.4668007247098174e-02
    x[1,1]    findWorstP[2,1]  -4.8249340428386175e-02
    x[1,2]    allocateEach[2]  1
    x[1,2]    findWorstP[1,2]  1.9212774006012703e-02
    x[1,2]    findWorstP[2,1]  -8.9232213924786488e-02
    x[1,3]    allocateEach[3]  1
    x[1,3]    findWorstP[1,2]  7.1624823302207971e-02
    x[1,3]    findWorstP[2,1]  -5.8321781514108134e-02
    x[1,4]    allocateEach[4]  1
    x[1,4]    findWorstP[1,2]  1.0253449339996416e-02
    x[1,4]    findWorstP[2,1]  -4.6058221168895054e-02
    x[1,5]    allocateEach[5]  1
    x[1,5]    findWorstP[1,2]  3.6932327234356022e-02
    x[1,5]    findWorstP[2,1]  -0.0962750972588651
    x[1,6]    allocateEach[6]  1
    x[1,6]    findWorstP[1,2]  0.0993091365201983
    x[1,6]    findWorstP[2,1]  -3.8478737199839026e-02
    x[1,7]    allocateEach[7]  1
    x[1,7]    findWorstP[1,2]  8.0275549007505914e-02
    x[1,7]    findWorstP[2,1]  -4.2626212941018649e-02
    x[1,8]    allocateEach[8]  1
    x[1,8]    findWorstP[1,2]  8.1629402512592832e-04
    x[1,8]    findWorstP[2,1]  -6.7812905245271213e-02
    x[1,9]    allocateEach[9]  1
    x[1,9]    findWorstP[1,2]  5.1068150596292831e-03
    x[1,9]    findWorstP[2,1]  -7.1502034610740950e-02
    x[1,10]   allocateEach[10]  1
    x[1,10]   findWorstP[1,2]  2.2607362573914429e-02
    x[1,10]   findWorstP[2,1]  -4.9244287439073477e-02
    x[1,11]   allocateEach[11]  1
    x[1,11]   findWorstP[1,2]  8.1320803551874488e-02
    x[1,11]   findWorstP[2,1]  -1.0446943612216608e-01
    x[1,12]   allocateEach[12]  1
    x[1,12]   findWorstP[1,2]  7.0629342783761720e-02
    x[1,12]   findWorstP[2,1]  -2.2022984393864870e-02
    x[1,13]   allocateEach[13]  1
    x[1,13]   findWorstP[1,2]  9.3176976526569380e-02
    x[1,13]   findWorstP[2,1]  -4.7399722756338594e-02
    x[1,14]   allocateEach[14]  1
    x[1,14]   findWorstP[1,2]  9.4003225356879758e-02
    x[1,14]   findWorstP[2,1]  -6.1485489424495832e-02
    x[1,15]   allocateEach[15]  1
    x[1,15]   findWorstP[1,2]  9.2121767177016339e-02
    x[1,15]   findWorstP[2,1]  -2.3085006483924340e-02
    x[1,16]   allocateEach[16]  1
    x[1,16]   findWorstP[1,2]  7.8095446672108618e-02
    x[1,16]   findWorstP[2,1]  -2.6550552251486833e-02
    x[1,17]   allocateEach[17]  1
    x[1,17]   findWorstP[1,2]  4.0207458140044193e-02
    x[1,17]   findWorstP[2,1]  -1.7752537673836249e-02
    x[2,1]    allocateEach[1]  1
    x[2,1]    findWorstP[1,2]  -2.4668007247098174e-02
    x[2,1]    findWorstP[2,1]  4.8249340428386175e-02
    x[2,2]    allocateEach[2]  1
    x[2,2]    findWorstP[1,2]  -1.9212774006012703e-02
    x[2,2]    findWorstP[2,1]  8.9232213924786488e-02
    x[2,3]    allocateEach[3]  1
    x[2,3]    findWorstP[1,2]  -7.1624823302207971e-02
    x[2,3]    findWorstP[2,1]  5.8321781514108134e-02
    x[2,4]    allocateEach[4]  1
    x[2,4]    findWorstP[1,2]  -1.0253449339996416e-02
    x[2,4]    findWorstP[2,1]  4.6058221168895054e-02
    x[2,5]    allocateEach[5]  1
    x[2,5]    findWorstP[1,2]  -3.6932327234356022e-02
    x[2,5]    findWorstP[2,1]  0.0962750972588651
    x[2,6]    allocateEach[6]  1
    x[2,6]    findWorstP[1,2]  -0.0993091365201983
    x[2,6]    findWorstP[2,1]  3.8478737199839026e-02
    x[2,7]    allocateEach[7]  1
    x[2,7]    findWorstP[1,2]  -8.0275549007505914e-02
    x[2,7]    findWorstP[2,1]  4.2626212941018649e-02
    x[2,8]    allocateEach[8]  1
    x[2,8]    findWorstP[1,2]  -8.1629402512592832e-04
    x[2,8]    findWorstP[2,1]  6.7812905245271213e-02
    x[2,9]    allocateEach[9]  1
    x[2,9]    findWorstP[1,2]  -5.1068150596292831e-03
    x[2,9]    findWorstP[2,1]  7.1502034610740950e-02
    x[2,10]   allocateEach[10]  1
    x[2,10]   findWorstP[1,2]  -2.2607362573914429e-02
    x[2,10]   findWorstP[2,1]  4.9244287439073477e-02
    x[2,11]   allocateEach[11]  1
    x[2,11]   findWorstP[1,2]  -8.1320803551874488e-02
    x[2,11]   findWorstP[2,1]  1.0446943612216608e-01
    x[2,12]   allocateEach[12]  1
    x[2,12]   findWorstP[1,2]  -7.0629342783761720e-02
    x[2,12]   findWorstP[2,1]  2.2022984393864870e-02
    x[2,13]   allocateEach[13]  1
    x[2,13]   findWorstP[1,2]  -9.3176976526569380e-02
    x[2,13]   findWorstP[2,1]  4.7399722756338594e-02
    x[2,14]   allocateEach[14]  1
    x[2,14]   findWorstP[1,2]  -9.4003225356879758e-02
    x[2,14]   findWorstP[2,1]  6.1485489424495832e-02
    x[2,15]   allocateEach[15]  1
    x[2,15]   findWorstP[1,2]  -9.2121767177016339e-02
    x[2,15]   findWorstP[2,1]  2.3085006483924340e-02
    x[2,16]   allocateEach[16]  1
    x[2,16]   findWorstP[1,2]  -7.8095446672108618e-02
    x[2,16]   findWorstP[2,1]  2.6550552251486833e-02
    x[2,17]   allocateEach[17]  1
    x[2,17]   findWorstP[1,2]  -4.0207458140044193e-02
    x[2,17]   findWorstP[2,1]  1.7752537673836249e-02
    MARKER    'MARKER'                 'INTEND'
RHS
    RHS1      allocateEach[1]  1
    RHS1      allocateEach[2]  1
    RHS1      allocateEach[3]  1
    RHS1      allocateEach[4]  1
    RHS1      allocateEach[5]  1
    RHS1      allocateEach[6]  1
    RHS1      allocateEach[7]  1
    RHS1      allocateEach[8]  1
    RHS1      allocateEach[9]  1
    RHS1      allocateEach[10]  1
    RHS1      allocateEach[11]  1
    RHS1      allocateEach[12]  1
    RHS1      allocateEach[13]  1
    RHS1      allocateEach[14]  1
    RHS1      allocateEach[15]  1
    RHS1      allocateEach[16]  1
    RHS1      allocateEach[17]  1
    RHS1      allocateAllCash  1
BOUNDS
 UP BND1      z         1
 MI BND1      cashProportion[1]
 UP BND1      cashProportion[1]  1
 MI BND1      cashProportion[2]
 UP BND1      cashProportion[2]  1
 BV BND1      x[1,1]  
 BV BND1      x[1,2]  
 BV BND1      x[1,3]  
 BV BND1      x[1,4]  
 BV BND1      x[1,5]  
 BV BND1      x[1,6]  
 BV BND1      x[1,7]  
 BV BND1      x[1,8]  
 BV BND1      x[1,9]  
 BV BND1      x[1,10] 
 BV BND1      x[1,11] 
 BV BND1      x[1,12] 
 BV BND1      x[1,13] 
 BV BND1      x[1,14] 
 BV BND1      x[1,15] 
 BV BND1      x[1,16] 
 BV BND1      x[1,17] 
 BV BND1      x[2,1]  
 BV BND1      x[2,2]  
 BV BND1      x[2,3]  
 BV BND1      x[2,4]  
 BV BND1      x[2,5]  
 BV BND1      x[2,6]  
 BV BND1      x[2,7]  
 BV BND1      x[2,8]  
 BV BND1      x[2,9]  
 BV BND1      x[2,10] 
 BV BND1      x[2,11] 
 BV BND1      x[2,12] 
 BV BND1      x[2,13] 
 BV BND1      x[2,14] 
 BV BND1      x[2,15] 
 BV BND1      x[2,16] 
 BV BND1      x[2,17] 
ENDATA
